\Problem name: compact

Minimize
OBJROW: C
Subject To
ord(0,1):  - x(0,1) + x(0,2) >= 7
ord(0,2):  x(0,0) - x(0,2) >= 7
ord(1,1):  x(1,0) - x(1,1) >= 4
ord(1,2):  - x(1,0) + x(1,2) >= 3
ord(2,1):  - x(2,1) + x(2,2) >= 7
ord(2,2):  x(2,0) - x(2,2) >= 6
triangle2(0,1,0):  y(0,1,0) + y(1,0,0) = 1
triangle2(0,1,1):  y(0,1,1) + y(1,0,1) = 1
triangle2(0,1,2):  y(0,1,2) + y(1,0,2) = 1
triangle2(0,2,0):  y(0,2,0) + y(2,0,0) = 1
triangle2(0,2,1):  y(0,2,1) + y(2,0,1) = 1
triangle2(0,2,2):  y(0,2,2) + y(2,0,2) = 1
triangle2(1,2,0):  y(1,2,0) + y(2,1,0) = 1
triangle2(1,2,1):  y(1,2,1) + y(2,1,1) = 1
triangle2(1,2,2):  y(1,2,2) + y(2,1,2) = 1
MCLinV(0,1,0):  - x(0,0) + v(0,1,0)p - v(0,1,0)n + x(1,0) = -3
MCLinV(1,0,0):  x(0,0) + v(1,0,0)p - v(1,0,0)n - x(1,0) = -1
MCLin1(0,1,0):  u(0,1,0)p - u(0,1,0)n >= 0
MCLin2(0,1,0):  23 y(1,0,0) + u(0,1,0)p - u(0,1,0)n >= 0
MCLin3(0,1,0):  -36 y(1,0,0) - v(0,1,0)p + v(0,1,0)n + u(0,1,0)p - u(0,1,0)n >= -36
MCLin4(0,1,0):  -36 y(1,0,0) + u(0,1,0)p - u(0,1,0)n <= 0
MCLin5(0,1,0):  23 y(1,0,0) - v(0,1,0)p + v(0,1,0)n + u(0,1,0)p - u(0,1,0)n <= 23
MCLin6(1,0,0):  u(1,0,0)p - u(1,0,0)n >= 0
MCLin7(1,0,0):  40 y(0,1,0) + u(1,0,0)p - u(1,0,0)n >= 0
MCLin8(1,0,0):  -19 y(0,1,0) - v(1,0,0)p + v(1,0,0)n + u(1,0,0)p - u(1,0,0)n >= -19
MCLin9(1,0,0):  -19 y(0,1,0) + u(1,0,0)p - u(1,0,0)n <= 0
MCLin10(1,0,0):  40 y(0,1,0) - v(1,0,0)p + v(1,0,0)n + u(1,0,0)p - u(1,0,0)n <= 40
MCLinV(0,1,1):  - x(0,1) + v(0,1,1)p - v(0,1,1)n + x(1,1) = -4
MCLinV(1,0,1):  x(0,1) + v(1,0,1)p - v(1,0,1)n - x(1,1) = -7
MCLin1(0,1,1):  u(0,1,1)p - u(0,1,1)n >= 0
MCLin2(0,1,1):  34 y(1,0,1) + u(0,1,1)p - u(0,1,1)n >= 0
MCLin3(0,1,1):  -25 y(1,0,1) - v(0,1,1)p + v(0,1,1)n + u(0,1,1)p - u(0,1,1)n >= -25
MCLin4(0,1,1):  -25 y(1,0,1) + u(0,1,1)p - u(0,1,1)n <= 0
MCLin5(0,1,1):  34 y(1,0,1) - v(0,1,1)p + v(0,1,1)n + u(0,1,1)p - u(0,1,1)n <= 34
MCLin6(1,0,1):  u(1,0,1)p - u(1,0,1)n >= 0
MCLin7(1,0,1):  36 y(0,1,1) + u(1,0,1)p - u(1,0,1)n >= 0
MCLin8(1,0,1):  -23 y(0,1,1) - v(1,0,1)p + v(1,0,1)n + u(1,0,1)p - u(1,0,1)n >= -23
MCLin9(1,0,1):  -23 y(0,1,1) + u(1,0,1)p - u(1,0,1)n <= 0
MCLin10(1,0,1):  36 y(0,1,1) - v(1,0,1)p + v(1,0,1)n + u(1,0,1)p - u(1,0,1)n <= 36
MCLinV(0,1,2):  - x(0,2) + v(0,1,2)p - v(0,1,2)n + x(1,2) = -7
MCLinV(1,0,2):  x(0,2) + v(1,0,2)p - v(1,0,2)n - x(1,2) = -7
MCLin1(0,1,2):  u(0,1,2)p - u(0,1,2)n >= 0
MCLin2(0,1,2):  37 y(1,0,2) + u(0,1,2)p - u(0,1,2)n >= 0
MCLin3(0,1,2):  -22 y(1,0,2) - v(0,1,2)p + v(0,1,2)n + u(0,1,2)p - u(0,1,2)n >= -22
MCLin4(0,1,2):  -22 y(1,0,2) + u(0,1,2)p - u(0,1,2)n <= 0
MCLin5(0,1,2):  37 y(1,0,2) - v(0,1,2)p + v(0,1,2)n + u(0,1,2)p - u(0,1,2)n <= 37
MCLin6(1,0,2):  u(1,0,2)p - u(1,0,2)n >= 0
MCLin7(1,0,2):  36 y(0,1,2) + u(1,0,2)p - u(1,0,2)n >= 0
MCLin8(1,0,2):  -23 y(0,1,2) - v(1,0,2)p + v(1,0,2)n + u(1,0,2)p - u(1,0,2)n >= -23
MCLin9(1,0,2):  -23 y(0,1,2) + u(1,0,2)p - u(1,0,2)n <= 0
MCLin10(1,0,2):  36 y(0,1,2) - v(1,0,2)p + v(1,0,2)n + u(1,0,2)p - u(1,0,2)n <= 36
MCLinV(0,2,0):  - x(0,0) + v(0,2,0)p - v(0,2,0)n + x(2,0) = -2
MCLinV(2,0,0):  x(0,0) + v(2,0,0)p - v(2,0,0)n - x(2,0) = -1
MCLin1(0,2,0):  u(0,2,0)p - u(0,2,0)n >= 0
MCLin2(0,2,0):  30 y(2,0,0) + u(0,2,0)p - u(0,2,0)n >= 0
MCLin3(0,2,0):  -28 y(2,0,0) - v(0,2,0)p + v(0,2,0)n + u(0,2,0)p - u(0,2,0)n >= -28
MCLin4(0,2,0):  -28 y(2,0,0) + u(0,2,0)p - u(0,2,0)n <= 0
MCLin5(0,2,0):  30 y(2,0,0) - v(0,2,0)p + v(0,2,0)n + u(0,2,0)p - u(0,2,0)n <= 30
MCLin6(2,0,0):  u(2,0,0)p - u(2,0,0)n >= 0
MCLin7(2,0,0):  31 y(0,2,0) + u(2,0,0)p - u(2,0,0)n >= 0
MCLin8(2,0,0):  -27 y(0,2,0) - v(2,0,0)p + v(2,0,0)n + u(2,0,0)p - u(2,0,0)n >= -27
MCLin9(2,0,0):  -27 y(0,2,0) + u(2,0,0)p - u(2,0,0)n <= 0
MCLin10(2,0,0):  31 y(0,2,0) - v(2,0,0)p + v(2,0,0)n + u(2,0,0)p - u(2,0,0)n <= 31
MCLinV(0,2,1):  - x(0,1) + v(0,2,1)p - v(0,2,1)n + x(2,1) = -7
MCLinV(2,0,1):  x(0,1) + v(2,0,1)p - v(2,0,1)n - x(2,1) = -7
MCLin1(0,2,1):  u(0,2,1)p - u(0,2,1)n >= 0
MCLin2(0,2,1):  36 y(2,0,1) + u(0,2,1)p - u(0,2,1)n >= 0
MCLin3(0,2,1):  -22 y(2,0,1) - v(0,2,1)p + v(0,2,1)n + u(0,2,1)p - u(0,2,1)n >= -22
MCLin4(0,2,1):  -22 y(2,0,1) + u(0,2,1)p - u(0,2,1)n <= 0
MCLin5(0,2,1):  36 y(2,0,1) - v(0,2,1)p + v(0,2,1)n + u(0,2,1)p - u(0,2,1)n <= 36
MCLin6(2,0,1):  u(2,0,1)p - u(2,0,1)n >= 0
MCLin7(2,0,1):  36 y(0,2,1) + u(2,0,1)p - u(2,0,1)n >= 0
MCLin8(2,0,1):  -22 y(0,2,1) - v(2,0,1)p + v(2,0,1)n + u(2,0,1)p - u(2,0,1)n >= -22
MCLin9(2,0,1):  -22 y(0,2,1) + u(2,0,1)p - u(2,0,1)n <= 0
MCLin10(2,0,1):  36 y(0,2,1) - v(2,0,1)p + v(2,0,1)n + u(2,0,1)p - u(2,0,1)n <= 36
MCLinV(0,2,2):  - x(0,2) + v(0,2,2)p - v(0,2,2)n + x(2,2) = -6
MCLinV(2,0,2):  x(0,2) + v(2,0,2)p - v(2,0,2)n - x(2,2) = -7
MCLin1(0,2,2):  u(0,2,2)p - u(0,2,2)n >= 0
MCLin2(0,2,2):  35 y(2,0,2) + u(0,2,2)p - u(0,2,2)n >= 0
MCLin3(0,2,2):  -23 y(2,0,2) - v(0,2,2)p + v(0,2,2)n + u(0,2,2)p - u(0,2,2)n >= -23
MCLin4(0,2,2):  -23 y(2,0,2) + u(0,2,2)p - u(0,2,2)n <= 0
MCLin5(0,2,2):  35 y(2,0,2) - v(0,2,2)p + v(0,2,2)n + u(0,2,2)p - u(0,2,2)n <= 35
MCLin6(2,0,2):  u(2,0,2)p - u(2,0,2)n >= 0
MCLin7(2,0,2):  36 y(0,2,2) + u(2,0,2)p - u(2,0,2)n >= 0
MCLin8(2,0,2):  -22 y(0,2,2) - v(2,0,2)p + v(2,0,2)n + u(2,0,2)p - u(2,0,2)n >= -22
MCLin9(2,0,2):  -22 y(0,2,2) + u(2,0,2)p - u(2,0,2)n <= 0
MCLin10(2,0,2):  36 y(0,2,2) - v(2,0,2)p + v(2,0,2)n + u(2,0,2)p - u(2,0,2)n <= 36
MCLinV(1,2,0):  - x(1,0) + v(1,2,0)p - v(1,2,0)n + x(2,0) = -2
MCLinV(2,1,0):  x(1,0) + v(2,1,0)p - v(2,1,0)n - x(2,0) = -3
MCLin1(1,2,0):  u(1,2,0)p - u(1,2,0)n >= 0
MCLin2(1,2,0):  40 y(2,1,0) + u(1,2,0)p - u(1,2,0)n >= 0
MCLin3(1,2,0):  -19 y(2,1,0) - v(1,2,0)p + v(1,2,0)n + u(1,2,0)p - u(1,2,0)n >= -19
MCLin4(1,2,0):  -19 y(2,1,0) + u(1,2,0)p - u(1,2,0)n <= 0
MCLin5(1,2,0):  40 y(2,1,0) - v(1,2,0)p + v(1,2,0)n + u(1,2,0)p - u(1,2,0)n <= 40
MCLin6(2,1,0):  u(2,1,0)p - u(2,1,0)n >= 0
MCLin7(2,1,0):  24 y(1,2,0) + u(2,1,0)p - u(2,1,0)n >= 0
MCLin8(2,1,0):  -35 y(1,2,0) - v(2,1,0)p + v(2,1,0)n + u(2,1,0)p - u(2,1,0)n >= -35
MCLin9(2,1,0):  -35 y(1,2,0) + u(2,1,0)p - u(2,1,0)n <= 0
MCLin10(2,1,0):  24 y(1,2,0) - v(2,1,0)p + v(2,1,0)n + u(2,1,0)p - u(2,1,0)n <= 24
MCLinV(1,2,1):  - x(1,1) + v(1,2,1)p - v(1,2,1)n + x(2,1) = -7
MCLinV(2,1,1):  x(1,1) + v(2,1,1)p - v(2,1,1)n - x(2,1) = -4
MCLin1(1,2,1):  u(1,2,1)p - u(1,2,1)n >= 0
MCLin2(1,2,1):  36 y(2,1,1) + u(1,2,1)p - u(1,2,1)n >= 0
MCLin3(1,2,1):  -23 y(2,1,1) - v(1,2,1)p + v(1,2,1)n + u(1,2,1)p - u(1,2,1)n >= -23
MCLin4(1,2,1):  -23 y(2,1,1) + u(1,2,1)p - u(1,2,1)n <= 0
MCLin5(1,2,1):  36 y(2,1,1) - v(1,2,1)p + v(1,2,1)n + u(1,2,1)p - u(1,2,1)n <= 36
MCLin6(2,1,1):  u(2,1,1)p - u(2,1,1)n >= 0
MCLin7(2,1,1):  34 y(1,2,1) + u(2,1,1)p - u(2,1,1)n >= 0
MCLin8(2,1,1):  -25 y(1,2,1) - v(2,1,1)p + v(2,1,1)n + u(2,1,1)p - u(2,1,1)n >= -25
MCLin9(2,1,1):  -25 y(1,2,1) + u(2,1,1)p - u(2,1,1)n <= 0
MCLin10(2,1,1):  34 y(1,2,1) - v(2,1,1)p + v(2,1,1)n + u(2,1,1)p - u(2,1,1)n <= 34
MCLinV(1,2,2):  - x(1,2) + v(1,2,2)p - v(1,2,2)n + x(2,2) = -6
MCLinV(2,1,2):  x(1,2) + v(2,1,2)p - v(2,1,2)n - x(2,2) = -7
MCLin1(1,2,2):  u(1,2,2)p - u(1,2,2)n >= 0
MCLin2(1,2,2):  35 y(2,1,2) + u(1,2,2)p - u(1,2,2)n >= 0
MCLin3(1,2,2):  -24 y(2,1,2) - v(1,2,2)p + v(1,2,2)n + u(1,2,2)p - u(1,2,2)n >= -24
MCLin4(1,2,2):  -24 y(2,1,2) + u(1,2,2)p - u(1,2,2)n <= 0
MCLin5(1,2,2):  35 y(2,1,2) - v(1,2,2)p + v(1,2,2)n + u(1,2,2)p - u(1,2,2)n <= 35
MCLin6(2,1,2):  u(2,1,2)p - u(2,1,2)n >= 0
MCLin7(2,1,2):  37 y(1,2,2) + u(2,1,2)p - u(2,1,2)n >= 0
MCLin8(2,1,2):  -22 y(1,2,2) - v(2,1,2)p + v(2,1,2)n + u(2,1,2)p - u(2,1,2)n >= -22
MCLin9(2,1,2):  -22 y(1,2,2) + u(2,1,2)p - u(2,1,2)n <= 0
MCLin10(2,1,2):  37 y(1,2,2) - v(2,1,2)p + v(2,1,2)n + u(2,1,2)p - u(2,1,2)n <= 37
makespan(0):  C - x(0,0) >= 1
makespan(1):  C - x(1,2) >= 7
makespan(2):  C - x(2,0) >= 2
cut_clique_1(0,0):  0.00852 x(0,0) + 0.01582 x(1,0) + 0.06255 x(2,0) >= 1
cut_clique_1(1,0):  0.00783 x(0,0) + 0.01427 x(1,0) + 0.06406 x(2,0) >= 1
cut_clique_1(2,0):  0.00783 x(0,0) + 0.01313 x(1,0) + 0.06406 x(2,0) >= 1
cut_clique_1(3,0):  0.00783 x(0,0) + 0.01300 x(1,0) + 0.06406 x(2,0) >= 1
cut_clique_1(4,0):  0.00736 x(0,0) + 0.01115 x(1,0) + 0.06510 x(2,0) >= 1
cut_clique_1(5,0):  0.00736 x(0,0) + 0.01093 x(1,0) + 0.06510 x(2,0) >= 1
cut_clique_1(6,0):  0.00828 x(0,0) + 0.01411 x(1,0) + 0.06313 x(2,0) >= 1
cut_clique_1(7,0):  0.00903 x(0,0) + 0.01608 x(1,0) + 0.06174 x(2,0) >= 1
cut_clique_1(8,0):  0.00567 x(0,0) + 0.01205 x(1,0) + 0.06668 x(2,0) >= 1
cut_clique_1(9,0):  0.00567 x(0,0) + 0.01035 x(1,0) + 0.06735 x(2,0) >= 1
cut_clique_1(10,0):  0.00567 x(0,0) + 0.01015 x(1,0) + 0.06735 x(2,0) >= 1
cut_clique_1(11,0):  0.00567 x(0,0) + 0.00925 x(1,0) + 0.06785 x(2,0) >= 1
cut_clique_1(12,0):  0.00567 x(0,0) + 0.00906 x(1,0) + 0.06785 x(2,0) >= 1
cut_clique_1(13,0):  0.00505 x(0,0) + 0.00741 x(1,0) + 0.06911 x(2,0) >= 1
cut_clique_1(14,0):  0.00444 x(0,0) + 0.00963 x(1,0) + 0.06911 x(2,0) >= 1
cut_clique_1(15,0):  0.00444 x(0,0) + 0.00930 x(1,0) + 0.06911 x(2,0) >= 1
cut_clique_1(16,0):  0.00444 x(0,0) + 0.00893 x(1,0) + 0.06911 x(2,0) >= 1
cut_clique_1(17,0):  0.00364 x(0,0) + 0.00787 x(1,0) + 0.07035 x(2,0) >= 1
cut_clique_1(18,0):  0.00408 x(0,0) + 0.00692 x(1,0) + 0.07035 x(2,0) >= 1
cut_clique_1(19,0):  0.00138 x(0,0) + 0.00240 x(1,0) + 0.07469 x(2,0) >= 1
cut_clique_1(20,0):  0.00138 x(0,0) + 0.00224 x(1,0) + 0.07469 x(2,0) >= 1
cut_clique_1(21,0):  0.00138 x(0,0) + 0.00212 x(1,0) + 0.07469 x(2,0) >= 1
cut_clique_1(22,0):  0.04876 x(0,0) + 0.00022 x(1,0) + 0.02325 x(2,0) >= 1
cut_clique_1(23,0):  0.05457 x(0,0) + 0.00015 x(1,0) + 0.01730 x(2,0) >= 1
cut_clique_1(24,0):  0.05457 x(0,0) + 0.00015 x(1,0) + 0.01782 x(2,0) >= 1
cut_clique_1(25,0):  0.05457 x(0,0) + 0.00015 x(1,0) + 0.01675 x(2,0) >= 1
cut_clique_1(26,0):  0.05457 x(0,0) + 0.00014 x(1,0) + 0.01675 x(2,0) >= 1
cut_clique_1(27,0):  0.05457 x(0,0) + 0.00015 x(1,0) + 0.01675 x(2,0) >= 1
cut_clique_1(28,0):  0.05457 x(0,0) + 0.00016 x(1,0) + 0.01675 x(2,0) >= 1
cut_clique_1(29,0):  0.05154 x(0,0) + 0.00016 x(1,0) + 0.01920 x(2,0) >= 1
cut_clique_1(30,0):  0.05154 x(0,0) + 0.00015 x(1,0) + 0.01920 x(2,0) >= 1
cut_clique_1(31,0):  0.05154 x(0,0) + 0.00014 x(1,0) + 0.01920 x(2,0) >= 1
cut_clique_1(32,0):  0.05154 x(0,0) + 0.00014 x(1,0) + 0.01920 x(2,0) >= 1
cut_clique_1(33,0):  0.05154 x(0,0) + 0.00014 x(1,0) + 0.02036 x(2,0) >= 1
cut_clique_1(34,0):  0.05154 x(0,0) + 0.00016 x(1,0) + 0.02036 x(2,0) >= 1
cut_clique_1(35,0):  0.05154 x(0,0) + 0.00014 x(1,0) + 0.02036 x(2,0) >= 1
cut_clique_1(36,0):  0.05154 x(0,0) + 0.00012 x(1,0) + 0.02036 x(2,0) >= 1
cut_clique_1(37,0):  0.03965 x(0,0) + 0.00019 x(1,0) + 0.03161 x(2,0) >= 1
cut_clique_1(0,1):  0.99769 x(0,1) + 0.99264 x(1,1) + 0.99832 x(2,1) >= 1
cut_clique_1(1,1):  0.99412 x(0,1) + 0.99024 x(1,1) + 0.98847 x(2,1) >= 1
cut_clique_1(2,1):  0.99374 x(0,1) + 0.99881 x(1,1) + 0.99343 x(2,1) >= 1
cut_clique_1(3,1):  0.99353 x(0,1) + 0.98617 x(1,1) + 0.99294 x(2,1) >= 1
cut_clique_1(4,1):  0.99590 x(0,1) + 0.99963 x(1,1) + 0.99108 x(2,1) >= 1
cut_clique_1(5,1):  0.99444 x(0,1) + 0.99902 x(1,1) + 0.99597 x(2,1) >= 1
cut_clique_1(6,1):  0.99473 x(0,1) + 0.98982 x(1,1) + 0.98770 x(2,1) >= 1
cut_clique_1(7,1):  0.99572 x(0,1) + 0.99002 x(1,1) + 0.99627 x(2,1) >= 1
cut_clique_1(8,1):  0.99331 x(0,1) + 0.99588 x(1,1) + 0.98530 x(2,1) >= 1
cut_clique_1(9,1):  0.99782 x(0,1) + 0.99697 x(1,1) + 0.98191 x(2,1) >= 1
cut_clique_1(10,1):  0.99444 x(0,1) + 0.98843 x(1,1) + 0.99597 x(2,1) >= 1
cut_clique_1(11,1):  0.99882 x(0,1) + 0.99943 x(1,1) + 0.99565 x(2,1) >= 1
cut_clique_1(12,1):  0.99374 x(0,1) + 0.99881 x(1,1) + 0.98350 x(2,1) >= 1
cut_clique_1(13,1):  0.99444 x(0,1) + 0.99992 x(1,1) + 0.99627 x(2,1) >= 1
cut_clique_1(14,1):  0.98309 x(0,1) + 0.99628 x(1,1) + 0.99873 x(2,1) >= 1
cut_clique_1(15,1):  0.99023 x(0,1) + 0.99356 x(1,1) + 0.99177 x(2,1) >= 1
cut_clique_1(16,1):  0.99115 x(0,1) + 0.99328 x(1,1) + 0.98847 x(2,1) >= 1
cut_clique_1(17,1):  0.99353 x(0,1) + 0.99613 x(1,1) + 0.99294 x(2,1) >= 1
cut_clique_1(18,1):  0.99205 x(0,1) + 0.99775 x(1,1) + 0.99950 x(2,1) >= 1
cut_clique_1(19,1):  0.99335 x(0,1) + 0.99791 x(1,1) + 0.98544 x(2,1) >= 1
cut_clique_1(20,1):  0.99444 x(0,1) + 0.99992 x(1,1) + 0.98631 x(2,1) >= 1
cut_clique_1(21,1):  0.99205 x(0,1) + 0.99415 x(1,1) + 0.99915 x(2,1) >= 1
cut_clique_1(22,1):  0.99882 x(0,1) + 0.99356 x(1,1) + 0.99156 x(2,1) >= 1
cut_clique_1(23,1):  0.99433 x(0,1) + 0.98602 x(1,1) + 0.99637 x(2,1) >= 1
cut_clique_1(24,1):  0.99882 x(0,1) + 0.98923 x(1,1) + 0.99565 x(2,1) >= 1
cut_clique_1(25,1):  0.99353 x(0,1) + 0.98627 x(1,1) + 0.99294 x(2,1) >= 1
cut_clique_1(26,1):  0.99273 x(0,1) + 0.99033 x(1,1) + 0.99281 x(2,1) >= 1
cut_clique_1(27,1):  0.99243 x(0,1) + 0.98646 x(1,1) + 0.99838 x(2,1) >= 1
cut_clique_1(28,1):  0.99970 x(0,1) + 0.99914 x(1,1) + 0.99510 x(2,1) >= 1
cut_clique_1(29,1):  0.99450 x(0,1) + 0.99593 x(1,1) + 0.98850 x(2,1) >= 1
cut_clique_1(30,1):  0.98844 x(0,1) + 0.99152 x(1,1) + 0.99629 x(2,1) >= 1
cut_clique_1(31,1):  0.99335 x(0,1) + 0.99791 x(1,1) + 0.99540 x(2,1) >= 1
cut_clique_1(32,1):  0.99766 x(0,1) + 0.99786 x(1,1) + 0.97961 x(2,1) >= 1
cut_clique_1(33,1):  0.99882 x(0,1) + 0.97944 x(1,1) + 0.99565 x(2,1) >= 1
cut_clique_1(34,1):  0.97721 x(0,1) + 0.99827 x(1,1) + 0.99873 x(2,1) >= 1
cut_clique_1(35,1):  0.99953 x(0,1) + 0.98561 x(1,1) + 0.99071 x(2,1) >= 1
cut_clique_1(36,1):  0.98455 x(0,1) + 0.99643 x(1,1) + 0.99838 x(2,1) >= 1
cut_clique_1(37,1):  0.99194 x(0,1) + 0.99016 x(1,1) + 0.99443 x(2,1) >= 1
cut_clique_1(38,1):  0.99832 x(0,1) + 0.99152 x(1,1) + 0.98633 x(2,1) >= 1
cut_clique_1(39,1):  0.99656 x(0,1) + 0.98930 x(1,1) + 0.99897 x(2,1) >= 1
cut_clique_1(40,1):  0.99882 x(0,1) + 0.97983 x(1,1) + 0.99565 x(2,1) >= 1
cut_clique_1(41,1):  0.99374 x(0,1) + 0.99881 x(1,1) + 0.99464 x(2,1) >= 1
cut_clique_1(42,1):  0.98924 x(0,1) + 0.99950 x(1,1) + 0.98705 x(2,1) >= 1
cut_clique_1(43,1):  0.99205 x(0,1) + 0.99415 x(1,1) + 0.98916 x(2,1) >= 1
cut_clique_1(44,1):  0.98576 x(0,1) + 0.99992 x(1,1) + 0.99627 x(2,1) >= 1
cut_clique_1(45,1):  0.98674 x(0,1) + 0.99999 x(1,1) + 0.99943 x(2,1) >= 1
cut_clique_1(46,1):  0.98825 x(0,1) + 0.99418 x(1,1) + 0.99399 x(2,1) >= 1
cut_clique_1(47,1):  0.98924 x(0,1) + 0.99950 x(1,1) + 0.99494 x(2,1) >= 1
cut_clique_1(48,1):  0.99205 x(0,1) + 0.99415 x(1,1) + 0.99950 x(2,1) >= 1
cut_clique_1(49,1):  0.98576 x(0,1) + 0.99002 x(1,1) + 0.99627 x(2,1) >= 1
cut_clique_1(0,2):  0.05170 x(1,2) + 0.04689 x(2,2) >= 1
cut_clique_1(1,2):  0.05463 x(1,2) + 0.04492 x(2,2) >= 1
cut_clique_1(2,2):  0.05410 x(1,2) + 0.04642 x(2,2) >= 1
cut_clique_1(3,2):  0.05325 x(1,2) + 0.04644 x(2,2) >= 1
cut_clique_1(4,2):  0.05493 x(1,2) + 0.04561 x(2,2) >= 1
cut_clique_1(5,2):  0.05439 x(1,2) + 0.04561 x(2,2) >= 1
cut_clique_1(6,2):  0.05708 x(1,2) + 0.04353 x(2,2) >= 1
cut_clique_1(7,2):  0.05354 x(1,2) + 0.04492 x(2,2) >= 1
cut_clique_1(8,2):  0.05359 x(1,2) + 0.04573 x(2,2) >= 1
cut_clique_1(9,2):  0.05695 x(1,2) + 0.04323 x(2,2) >= 1
cut_clique_1(10,2):  0.05559 x(1,2) + 0.04467 x(2,2) >= 1
cut_clique_1(11,2):  0.05126 x(1,2) + 0.04914 x(2,2) >= 1
cut_clique_1(12,2):  0.05771 x(1,2) + 0.04282 x(2,2) >= 1
cut_clique_1(13,2):  0.05466 x(1,2) + 0.04487 x(2,2) >= 1
cut_clique_1(14,2):  0.04952 x(1,2) + 0.05097 x(2,2) >= 1
cut_clique_1(15,2):  0.05836 x(1,2) + 0.04233 x(2,2) >= 1
cut_clique_1(16,2):  0.05325 x(1,2) + 0.04689 x(2,2) >= 1
cut_clique_1(17,2):  0.05359 x(1,2) + 0.04619 x(2,2) >= 1
cut_clique_1(18,2):  0.05325 x(1,2) + 0.04597 x(2,2) >= 1
cut_clique_1(19,2):  0.05123 x(1,2) + 0.04820 x(2,2) >= 1
cut_clique_1(20,2):  0.05123 x(1,2) + 0.04868 x(2,2) >= 1
cut_clique_1(21,2):  0.05640 x(1,2) + 0.04442 x(2,2) >= 1
cut_clique_1(22,2):  0.05069 x(1,2) + 0.05003 x(2,2) >= 1
cut_clique_1(23,2):  0.05375 x(1,2) + 0.04487 x(2,2) >= 1
cut_clique_1(24,2):  0.05275 x(1,2) + 0.04561 x(2,2) >= 1
cut_clique_1(25,2):  0.05325 x(1,2) + 0.04560 x(2,2) >= 1
cut_clique_1(26,2):  0.05315 x(1,2) + 0.04531 x(2,2) >= 1
cut_clique_1(27,2):  0.05223 x(1,2) + 0.04689 x(2,2) >= 1
cut_clique_1(28,2):  0.05681 x(1,2) + 0.04330 x(2,2) >= 1
cut_clique_1(29,2):  0.05388 x(1,2) + 0.04630 x(2,2) >= 1
cut_clique_1(30,2):  0.05125 x(1,2) + 0.04794 x(2,2) >= 1
cut_clique_1(31,2):  0.05315 x(1,2) + 0.04697 x(2,2) >= 1
cut_clique_1(32,2):  0.05559 x(1,2) + 0.04422 x(2,2) >= 1
cut_clique_1(33,2):  0.05599 x(1,2) + 0.04487 x(2,2) >= 1
cut_clique_1(34,2):  0.05447 x(1,2) + 0.04422 x(2,2) >= 1
cut_clique_1(35,2):  0.05348 x(1,2) + 0.04689 x(2,2) >= 1
cut_clique_1(36,2):  0.05275 x(1,2) + 0.04741 x(2,2) >= 1
cut_clique_1(37,2):  0.05275 x(1,2) + 0.04694 x(2,2) >= 1
cut_clique_1(38,2):  0.05522 x(0,2) + 0.00880 x(1,2) + 0.03321 x(2,2) >= 1
cut_clique_1(39,2):  0.05301 x(0,2) + 0.00880 x(1,2) + 0.03321 x(2,2) >= 1
cut_clique_1(40,2):  0.05301 x(0,2) + 0.00862 x(1,2) + 0.03321 x(2,2) >= 1
cut_clique_1(41,2):  0.05301 x(0,2) + 0.00854 x(1,2) + 0.03321 x(2,2) >= 1
cut_clique_1(42,2):  0.05301 x(0,2) + 0.00854 x(1,2) + 0.03288 x(2,2) >= 1
cut_clique_1(43,2):  0.05301 x(0,2) + 0.00854 x(1,2) + 0.03485 x(2,2) >= 1
cut_clique_1(44,2):  0.05301 x(0,2) + 0.00845 x(1,2) + 0.03485 x(2,2) >= 1
cut_clique_1(45,2):  0.05359 x(1,2) + 0.04667 x(2,2) >= 1
cut_clique_1(46,2):  0.05046 x(1,2) + 0.04928 x(2,2) >= 1
cut_clique_1(47,2):  0.05325 x(1,2) + 0.04506 x(2,2) >= 1
cut_clique_1(48,2):  0.05194 x(1,2) + 0.04642 x(2,2) >= 1
cut_clique_1(49,2):  0.05518 x(1,2) + 0.04492 x(2,2) >= 1
cut_clique_2(0,1):  0.96186 x(0,1) + 0.84910 x(2,1) >= 1
cut_clique_2(1,1):  0.96136 x(0,1) + 0.87432 x(2,1) >= 1
cut_clique_2(2,1):  0.98110 x(0,1) + 0.82999 x(2,1) >= 1
cut_clique_2(3,1):  0.87149 x(0,1) + 0.88918 x(2,1) >= 1
cut_clique_2(4,1):  0.96136 x(0,1) + 0.80213 x(2,1) >= 1
cut_clique_2(5,1):  0.96953 x(0,1) + 0.85273 x(2,1) >= 1
cut_clique_2(6,1):  0.98110 x(0,1) + 0.97646 x(2,1) >= 1
cut_clique_2(7,1):  0.94214 x(0,1) + 0.88481 x(2,1) >= 1
cut_clique_2(8,1):  0.84759 x(0,1) + 0.83534 x(2,1) >= 1
cut_clique_2(9,1):  0.91557 x(0,1) + 0.87597 x(2,1) >= 1
cut_clique_2(10,1):  0.91557 x(0,1) + 0.88481 x(2,1) >= 1
cut_clique_2(11,1):  0.84759 x(0,1) + 0.86876 x(2,1) >= 1
cut_clique_2(12,1):  0.88631 x(0,1) + 0.96121 x(2,1) >= 1
cut_clique_2(13,1):  0.91465 x(0,1) + 0.82195 x(2,1) >= 1
cut_clique_2(14,1):  0.96136 x(0,1) + 0.88481 x(2,1) >= 1
cut_clique_2(15,1):  0.96953 x(0,1) + 0.79695 x(2,1) >= 1
cut_clique_2(16,1):  0.83597 x(0,1) + 0.83817 x(2,1) >= 1
cut_clique_2(17,1):  0.96953 x(0,1) + 0.83017 x(2,1) >= 1
cut_clique_2(18,1):  0.87149 x(0,1) + 0.91254 x(2,1) >= 1
cut_clique_2(19,1):  0.85379 x(0,1) + 0.96678 x(2,1) >= 1
cut_clique_2(20,1):  0.99278 x(0,1) + 0.96678 x(2,1) >= 1
cut_clique_2(21,1):  0.82401 x(0,1) + 0.88381 x(2,1) >= 1
cut_clique_2(22,1):  0.87762 x(0,1) + 0.83764 x(2,1) >= 1
cut_clique_2(23,1):  0.87856 x(0,1) + 0.96678 x(2,1) >= 1
cut_clique_2(24,1):  0.87856 x(0,1) + 0.92959 x(2,1) >= 1
cut_clique_2(25,1):  0.96136 x(0,1) + 0.72921 x(2,1) >= 1
cut_clique_2(26,1):  0.96186 x(0,1) + 0.97646 x(2,1) >= 1
cut_clique_2(27,1):  0.96136 x(0,1) + 0.76940 x(2,1) >= 1
cut_clique_2(28,1):  0.98179 x(0,1) + 0.70995 x(2,1) >= 1
cut_clique_2(29,1):  0.87149 x(0,1) + 0.87744 x(2,1) >= 1
cut_clique_2(30,1):  0.96953 x(0,1) + 0.84926 x(2,1) >= 1
cut_clique_2(31,1):  0.79641 x(0,1) + 0.90877 x(2,1) >= 1
cut_clique_2(32,1):  0.85379 x(0,1) + 0.90877 x(2,1) >= 1
cut_clique_2(33,1):  0.96186 x(0,1) + 0.81644 x(2,1) >= 1
cut_clique_2(34,1):  0.94186 x(0,1) + 0.82999 x(2,1) >= 1
cut_clique_2(35,1):  0.96953 x(0,1) + 0.86625 x(2,1) >= 1
cut_clique_2(36,1):  0.89845 x(0,1) + 0.87744 x(2,1) >= 1
cut_clique_2(37,1):  0.87762 x(0,1) + 0.82927 x(2,1) >= 1
cut_clique_2(38,1):  0.96953 x(0,1) + 0.77205 x(2,1) >= 1
cut_clique_2(39,1):  0.91465 x(0,1) + 0.83017 x(2,1) >= 1
cut_clique_2(40,1):  0.96186 x(0,1) + 0.70995 x(2,1) >= 1
cut_clique_2(41,1):  0.95234 x(0,1) + 0.70995 x(2,1) >= 1
cut_clique_2(42,1):  0.81024 x(0,1) + 0.88481 x(2,1) >= 1
cut_clique_2(43,1):  0.78434 x(0,1) + 0.88918 x(2,1) >= 1
cut_clique_2(44,1):  0.87149 x(0,1) + 0.79391 x(2,1) >= 1
cut_clique_2(45,1):  0.78434 x(0,1) + 0.96121 x(2,1) >= 1
cut_clique_2(46,1):  0.89845 x(0,1) + 0.86876 x(2,1) >= 1
cut_clique_2(47,1):  0.88631 x(0,1) + 0.83625 x(2,1) >= 1
cut_clique_2(48,1):  0.82883 x(0,1) + 0.92959 x(2,1) >= 1
cut_clique_2(49,1):  0.96136 x(0,1) + 0.83817 x(2,1) >= 1
cut_clique_3(0,1):  0.88325 x(0,1) + 0.86671 x(1,1) >= 1
cut_clique_3(1,1):  0.94973 x(0,1) + 0.94208 x(1,1) >= 1
cut_clique_3(2,1):  0.94973 x(0,1) + 0.86671 x(1,1) >= 1
cut_clique_3(3,1):  0.79384 x(0,1) + 0.99070 x(1,1) >= 1
cut_clique_3(4,1):  0.79584 x(0,1) + 0.98395 x(1,1) >= 1
cut_clique_3(5,1):  0.92176 x(0,1) + 0.83185 x(1,1) >= 1
cut_clique_3(6,1):  0.97986 x(0,1) + 0.93186 x(1,1) >= 1
cut_clique_3(7,1):  0.82768 x(0,1) + 0.98395 x(1,1) >= 1
cut_clique_3(8,1):  0.89122 x(0,1) + 0.89553 x(1,1) >= 1
cut_clique_3(9,1):  0.90544 x(0,1) + 0.99379 x(1,1) >= 1
cut_clique_3(10,1):  0.80128 x(0,1) + 0.99379 x(1,1) >= 1
cut_clique_3(11,1):  0.91361 x(0,1) + 0.85350 x(1,1) >= 1
cut_clique_3(12,1):  0.94218 x(0,1) + 0.93186 x(1,1) >= 1
cut_clique_3(13,1):  0.92410 x(0,1) + 0.86418 x(1,1) >= 1
cut_clique_3(14,1):  0.94560 x(0,1) + 0.82001 x(1,1) >= 1
cut_clique_3(15,1):  0.76523 x(0,1) + 0.99332 x(1,1) >= 1
cut_clique_3(16,1):  0.97634 x(0,1) + 0.88324 x(1,1) >= 1
cut_clique_3(17,1):  0.94218 x(0,1) + 0.90472 x(1,1) >= 1
cut_clique_3(18,1):  0.83354 x(0,1) + 0.99070 x(1,1) >= 1
cut_clique_3(19,1):  0.85251 x(0,1) + 0.98395 x(1,1) >= 1
cut_clique_3(20,1):  0.97273 x(0,1) + 0.81526 x(1,1) >= 1
cut_clique_3(21,1):  0.94218 x(0,1) + 0.92318 x(1,1) >= 1
cut_clique_3(22,1):  0.94532 x(0,1) + 0.90579 x(1,1) >= 1
cut_clique_3(23,1):  0.85011 x(0,1) + 0.90467 x(1,1) >= 1
cut_clique_3(24,1):  0.79384 x(0,1) + 0.96344 x(1,1) >= 1
cut_clique_3(25,1):  0.99794 x(0,1) + 0.75653 x(1,1) >= 1
cut_clique_3(26,1):  0.91776 x(0,1) + 0.89207 x(1,1) >= 1
cut_clique_3(27,1):  0.86402 x(0,1) + 0.88324 x(1,1) >= 1
cut_clique_3(28,1):  0.81031 x(0,1) + 0.97565 x(1,1) >= 1
cut_clique_3(29,1):  0.97986 x(0,1) + 0.88527 x(1,1) >= 1
cut_clique_3(30,1):  0.91776 x(0,1) + 0.96344 x(1,1) >= 1
cut_clique_3(31,1):  0.81841 x(0,1) + 0.97565 x(1,1) >= 1
cut_clique_3(32,1):  0.97634 x(0,1) + 0.89207 x(1,1) >= 1
cut_clique_3(33,1):  0.97173 x(0,1) + 0.82001 x(1,1) >= 1
cut_clique_3(34,1):  0.86103 x(0,1) + 0.98395 x(1,1) >= 1
cut_clique_3(35,1):  0.91602 x(0,1) + 0.84872 x(1,1) >= 1
cut_clique_3(36,1):  0.82497 x(0,1) + 0.96344 x(1,1) >= 1
cut_clique_3(37,1):  0.86103 x(0,1) + 0.99379 x(1,1) >= 1
cut_clique_3(38,1):  0.90844 x(0,1) + 0.90736 x(1,1) >= 1
cut_clique_3(39,1):  0.90544 x(0,1) + 0.93416 x(1,1) >= 1
cut_clique_3(40,1):  0.96251 x(0,1) + 0.89553 x(1,1) >= 1
cut_clique_3(41,1):  0.94218 x(0,1) + 0.82427 x(1,1) >= 1
cut_clique_3(42,1):  0.99259 x(0,1) + 0.81526 x(1,1) >= 1
cut_clique_3(43,1):  0.81680 x(0,1) + 0.96344 x(1,1) >= 1
cut_clique_3(44,1):  0.85242 x(0,1) + 0.99379 x(1,1) >= 1
cut_clique_3(45,1):  0.87092 x(0,1) + 0.88527 x(1,1) >= 1
cut_clique_3(46,1):  0.80842 x(0,1) + 0.97828 x(1,1) >= 1
cut_clique_3(47,1):  0.98930 x(0,1) + 0.84872 x(1,1) >= 1
cut_clique_3(48,1):  0.94973 x(0,1) + 0.84872 x(1,1) >= 1
cut_clique_3(49,1):  0.80842 x(0,1) + 0.94301 x(1,1) >= 1
cut_clique_4(0,1):  0.37832 x(0,1) + 0.04722 x(1,1) + 0.06103 x(2,1) >= 1
cut_clique_4(1,1):  0.21398 x(0,1) + 0.04226 x(1,1) + 0.06532 x(2,1) >= 1
cut_clique_4(2,1):  0.21722 x(0,1) + 0.03753 x(1,1) + 0.07039 x(2,1) >= 1
cut_clique_4(3,1):  0.51271 x(0,1) + 0.04722 x(1,1) + 0.06103 x(2,1) >= 1
cut_clique_4(4,1):  0.26747 x(0,1) + 0.03889 x(1,1) + 0.06769 x(2,1) >= 1
cut_clique_4(5,1):  0.41427 x(0,1) + 0.04110 x(1,1) + 0.06480 x(2,1) >= 1
cut_clique_4(6,1):  0.55746 x(0,1) + 0.04487 x(1,1) + 0.06293 x(2,1) >= 1
cut_clique_4(7,1):  0.38885 x(0,1) + 0.04043 x(1,1) + 0.06591 x(2,1) >= 1
cut_clique_4(8,1):  0.34100 x(0,1) + 0.04306 x(1,1) + 0.06358 x(2,1) >= 1
cut_clique_4(9,1):  0.40599 x(0,1) + 0.04110 x(1,1) + 0.06480 x(2,1) >= 1
cut_clique_4(10,1):  0.17096 x(0,1) + 0.04150 x(1,1) + 0.06487 x(2,1) >= 1
cut_clique_4(11,1):  0.23870 x(0,1) + 0.03640 x(1,1) + 0.07039 x(2,1) >= 1
cut_clique_4(12,1):  0.41121 x(0,1) + 0.04722 x(1,1) + 0.06103 x(2,1) >= 1
cut_clique_4(13,1):  0.26257 x(0,1) + 0.04098 x(1,1) + 0.06591 x(2,1) >= 1
cut_clique_4(14,1):  0.21722 x(0,1) + 0.03682 x(1,1) + 0.07039 x(2,1) >= 1
cut_clique_4(15,1):  0.24651 x(0,1) + 0.03683 x(1,1) + 0.07099 x(2,1) >= 1
cut_clique_4(16,1):  0.29001 x(0,1) + 0.03683 x(1,1) + 0.07099 x(2,1) >= 1
cut_clique_4(17,1):  0.36247 x(0,1) + 0.04110 x(1,1) + 0.06480 x(2,1) >= 1
cut_clique_4(18,1):  0.23790 x(0,1) + 0.04226 x(1,1) + 0.06532 x(2,1) >= 1
cut_clique_4(19,1):  0.31438 x(0,1) + 0.04226 x(1,1) + 0.06532 x(2,1) >= 1
cut_clique_4(20,1):  0.34296 x(0,1) + 0.04043 x(1,1) + 0.06591 x(2,1) >= 1
cut_clique_4(21,1):  0.32535 x(0,1) + 0.04722 x(1,1) + 0.06103 x(2,1) >= 1
cut_clique_4(22,1):  0.17996 x(0,1) + 0.04150 x(1,1) + 0.06487 x(2,1) >= 1
cut_clique_4(23,1):  0.29607 x(0,1) + 0.04722 x(1,1) + 0.06103 x(2,1) >= 1
cut_clique_4(24,1):  0.30181 x(0,1) + 0.04098 x(1,1) + 0.06591 x(2,1) >= 1
cut_clique_4(25,1):  0.35884 x(0,1) + 0.04110 x(1,1) + 0.06480 x(2,1) >= 1
cut_clique_4(26,1):  0.38107 x(0,1) + 0.04043 x(1,1) + 0.06591 x(2,1) >= 1
cut_clique_4(27,1):  0.32655 x(0,1) + 0.04110 x(1,1) + 0.06480 x(2,1) >= 1
cut_clique_4(28,1):  0.30177 x(0,1) + 0.04306 x(1,1) + 0.06358 x(2,1) >= 1
cut_clique_4(29,1):  0.23154 x(0,1) + 0.03640 x(1,1) + 0.07039 x(2,1) >= 1
cut_clique_4(30,1):  0.47682 x(0,1) + 0.04722 x(1,1) + 0.06103 x(2,1) >= 1
cut_clique_4(31,1):  0.14318 x(0,1) + 0.03572 x(1,1) + 0.07192 x(2,1) >= 1
cut_clique_4(32,1):  0.56860 x(0,1) + 0.04487 x(1,1) + 0.06293 x(2,1) >= 1
cut_clique_4(33,1):  0.13257 x(0,1) + 0.03572 x(1,1) + 0.07192 x(2,1) >= 1
cut_clique_4(34,1):  0.30641 x(0,1) + 0.04226 x(1,1) + 0.06532 x(2,1) >= 1
cut_clique_4(35,1):  0.34296 x(0,1) + 0.04098 x(1,1) + 0.06591 x(2,1) >= 1
cut_clique_4(36,1):  0.11629 x(0,1) + 0.03572 x(1,1) + 0.07192 x(2,1) >= 1
cut_clique_4(37,1):  0.62720 x(0,1) + 0.04088 x(1,1) + 0.06695 x(2,1) >= 1
cut_clique_4(38,1):  0.26645 x(0,1) + 0.04226 x(1,1) + 0.06532 x(2,1) >= 1
cut_clique_4(39,1):  0.70621 x(0,1) + 0.04492 x(1,1) + 0.06293 x(2,1) >= 1
cut_clique_4(40,1):  0.37757 x(0,1) + 0.04110 x(1,1) + 0.06480 x(2,1) >= 1
cut_clique_4(41,1):  0.23870 x(0,1) + 0.03753 x(1,1) + 0.07039 x(2,1) >= 1
cut_clique_4(42,1):  0.33759 x(0,1) + 0.04306 x(1,1) + 0.06358 x(2,1) >= 1
cut_clique_4(43,1):  0.41961 x(0,1) + 0.04722 x(1,1) + 0.06103 x(2,1) >= 1
cut_clique_4(44,1):  0.23154 x(0,1) + 0.04004 x(1,1) + 0.06754 x(2,1) >= 1
cut_clique_4(45,1):  0.23805 x(0,1) + 0.03889 x(1,1) + 0.06769 x(2,1) >= 1
cut_clique_4(46,1):  0.61409 x(0,1) + 0.04490 x(1,1) + 0.06293 x(2,1) >= 1
cut_clique_4(47,1):  0.35594 x(0,1) + 0.04110 x(1,1) + 0.06480 x(2,1) >= 1
cut_clique_4(48,1):  0.23323 x(0,1) + 0.04226 x(1,1) + 0.06532 x(2,1) >= 1
cut_clique_4(49,1):  0.33093 x(0,1) + 0.04226 x(1,1) + 0.06532 x(2,1) >= 1
cut_clique_5(0,1):  0.06714 x(0,1) + 0.03809 x(1,1) + 0.06769 x(2,1) >= 1
cut_clique_5(1,1):  0.06727 x(0,1) + 0.03880 x(1,1) + 0.06677 x(2,1) >= 1
cut_clique_5(2,1):  0.06677 x(0,1) + 0.03854 x(1,1) + 0.06698 x(2,1) >= 1
cut_clique_5(3,1):  0.06738 x(0,1) + 0.03808 x(1,1) + 0.06678 x(2,1) >= 1
cut_clique_5(4,1):  0.06670 x(0,1) + 0.03846 x(1,1) + 0.06699 x(2,1) >= 1
cut_clique_5(5,1):  0.06734 x(0,1) + 0.03859 x(1,1) + 0.06698 x(2,1) >= 1
cut_clique_5(6,1):  0.06701 x(0,1) + 0.03811 x(1,1) + 0.06678 x(2,1) >= 1
cut_clique_5(7,1):  0.06710 x(0,1) + 0.03846 x(1,1) + 0.06699 x(2,1) >= 1
cut_clique_5(8,1):  0.06646 x(0,1) + 0.03891 x(1,1) + 0.06729 x(2,1) >= 1
cut_clique_5(9,1):  0.06727 x(0,1) + 0.03800 x(1,1) + 0.06690 x(2,1) >= 1
cut_clique_5(10,1):  0.06727 x(0,1) + 0.03841 x(1,1) + 0.06677 x(2,1) >= 1
cut_clique_5(11,1):  0.06701 x(0,1) + 0.03855 x(1,1) + 0.06678 x(2,1) >= 1
cut_clique_5(12,1):  0.06702 x(0,1) + 0.03814 x(1,1) + 0.06677 x(2,1) >= 1
cut_clique_5(13,1):  0.06671 x(0,1) + 0.03885 x(1,1) + 0.06678 x(2,1) >= 1
cut_clique_5(14,1):  0.06727 x(0,1) + 0.03880 x(1,1) + 0.06677 x(2,1) >= 1
cut_clique_5(15,1):  0.06701 x(0,1) + 0.03855 x(1,1) + 0.06745 x(2,1) >= 1
cut_clique_5(16,1):  0.06741 x(0,1) + 0.03798 x(1,1) + 0.06781 x(2,1) >= 1
cut_clique_5(17,1):  0.06738 x(0,1) + 0.03846 x(1,1) + 0.06718 x(2,1) >= 1
cut_clique_5(18,1):  0.06702 x(0,1) + 0.03852 x(1,1) + 0.06677 x(2,1) >= 1
cut_clique_5(19,1):  0.06738 x(0,1) + 0.03846 x(1,1) + 0.06678 x(2,1) >= 1
cut_clique_5(20,1):  0.06698 x(0,1) + 0.03825 x(1,1) + 0.06783 x(2,1) >= 1
cut_clique_5(21,1):  0.06698 x(0,1) + 0.03825 x(1,1) + 0.06716 x(2,1) >= 1
cut_clique_5(22,1):  0.06698 x(0,1) + 0.03825 x(1,1) + 0.06783 x(2,1) >= 1
cut_clique_5(23,1):  0.06698 x(0,1) + 0.03825 x(1,1) + 0.06715 x(2,1) >= 1
cut_clique_5(24,1):  0.06701 x(0,1) + 0.03839 x(1,1) + 0.06678 x(2,1) >= 1
cut_clique_5(25,1):  0.06738 x(0,1) + 0.03885 x(1,1) + 0.06678 x(2,1) >= 1
cut_clique_5(26,1):  0.06771 x(0,1) + 0.03778 x(1,1) + 0.06771 x(2,1) >= 1
cut_clique_5(27,1):  0.06805 x(0,1) + 0.03823 x(1,1) + 0.06659 x(2,1) >= 1
cut_clique_5(28,1):  0.06695 x(0,1) + 0.03796 x(1,1) + 0.06715 x(2,1) >= 1
cut_clique_5(29,1):  0.06741 x(0,1) + 0.03798 x(1,1) + 0.06780 x(2,1) >= 1
cut_clique_5(30,1):  0.06738 x(0,1) + 0.03885 x(1,1) + 0.06678 x(2,1) >= 1
cut_clique_5(31,1):  0.06738 x(0,1) + 0.03846 x(1,1) + 0.06699 x(2,1) >= 1
cut_clique_5(32,1):  0.06734 x(0,1) + 0.03804 x(1,1) + 0.06713 x(2,1) >= 1
cut_clique_5(33,1):  0.06734 x(0,1) + 0.03898 x(1,1) + 0.06653 x(2,1) >= 1
cut_clique_5(34,1):  0.06764 x(0,1) + 0.03885 x(1,1) + 0.06638 x(2,1) >= 1
cut_clique_5(35,1):  0.06752 x(0,1) + 0.03800 x(1,1) + 0.06748 x(2,1) >= 1
cut_clique_5(36,1):  0.06727 x(0,1) + 0.03869 x(1,1) + 0.06677 x(2,1) >= 1
cut_clique_5(37,1):  0.06752 x(0,1) + 0.03881 x(1,1) + 0.06660 x(2,1) >= 1
cut_clique_5(38,1):  0.06727 x(0,1) + 0.03838 x(1,1) + 0.06690 x(2,1) >= 1
cut_clique_5(39,1):  0.06695 x(0,1) + 0.03797 x(1,1) + 0.06750 x(2,1) >= 1
cut_clique_5(40,1):  0.06714 x(0,1) + 0.03787 x(1,1) + 0.06769 x(2,1) >= 1
cut_clique_5(41,1):  0.06719 x(0,1) + 0.03797 x(1,1) + 0.06757 x(2,1) >= 1
cut_clique_5(42,1):  0.06752 x(0,1) + 0.03800 x(1,1) + 0.06706 x(2,1) >= 1
cut_clique_5(43,1):  0.06764 x(0,1) + 0.03839 x(1,1) + 0.06698 x(2,1) >= 1
cut_clique_5(44,1):  0.06701 x(0,1) + 0.03878 x(1,1) + 0.06678 x(2,1) >= 1
cut_clique_5(45,1):  0.06752 x(0,1) + 0.03783 x(1,1) + 0.06738 x(2,1) >= 1
cut_clique_5(46,1):  0.06710 x(0,1) + 0.03807 x(1,1) + 0.06699 x(2,1) >= 1
cut_clique_5(47,1):  0.06771 x(0,1) + 0.03778 x(1,1) + 0.06763 x(2,1) >= 1
cut_clique_5(48,1):  0.06695 x(0,1) + 0.03797 x(1,1) + 0.06818 x(2,1) >= 1
cut_clique_5(49,1):  0.06688 x(0,1) + 0.03890 x(1,1) + 0.06681 x(2,1) >= 1
Bounds
 0 <= C <= 44
 14 <= x(0,0) <= 43
 0 <= y(0,1,0) <= 1
 0 <= y(1,0,0) <= 1
 0 <= v(0,1,0)p <= 36
 0 <= v(0,1,0)n <= 23
 0 <= v(1,0,0)p <= 19
 0 <= v(1,0,0)n <= 40
 0 <= u(0,1,0)p <= 440
 0 <= u(0,1,0)n <= 440
 0 <= u(1,0,0)p <= 440
 0 <= u(1,0,0)n <= 440
 0 <= y(0,2,0) <= 1
 0 <= y(2,0,0) <= 1
 0 <= v(0,2,0)p <= 28
 0 <= v(0,2,0)n <= 30
 0 <= v(2,0,0)p <= 27
 0 <= v(2,0,0)n <= 31
 0 <= u(0,2,0)p <= 440
 0 <= u(0,2,0)n <= 440
 0 <= u(2,0,0)p <= 440
 0 <= u(2,0,0)n <= 440
 4 <= x(1,0) <= 34
 0 <= y(1,2,0) <= 1
 0 <= y(2,1,0) <= 1
 0 <= v(1,2,0)p <= 19
 0 <= v(1,2,0)n <= 40
 0 <= v(2,1,0)p <= 35
 0 <= v(2,1,0)n <= 24
 0 <= u(1,2,0)p <= 440
 0 <= u(1,2,0)n <= 440
 0 <= u(2,1,0)p <= 440
 0 <= u(2,1,0)n <= 440
 13 <= x(2,0) <= 42
 0 <= x(0,1) <= 29
 0 <= y(0,1,1) <= 1
 0 <= y(1,0,1) <= 1
 0 <= v(0,1,1)p <= 25
 0 <= v(0,1,1)n <= 34
 0 <= v(1,0,1)p <= 23
 0 <= v(1,0,1)n <= 36
 0 <= u(0,1,1)p <= 440
 0 <= u(0,1,1)n <= 440
 0 <= u(1,0,1)p <= 440
 0 <= u(1,0,1)n <= 440
 0 <= y(0,2,1) <= 1
 0 <= y(2,0,1) <= 1
 0 <= v(0,2,1)p <= 22
 0 <= v(0,2,1)n <= 36
 0 <= v(2,0,1)p <= 22
 0 <= v(2,0,1)n <= 36
 0 <= u(0,2,1)p <= 440
 0 <= u(0,2,1)n <= 440
 0 <= u(2,0,1)p <= 440
 0 <= u(2,0,1)n <= 440
 0 <= x(1,1) <= 30
 0 <= y(1,2,1) <= 1
 0 <= y(2,1,1) <= 1
 0 <= v(1,2,1)p <= 23
 0 <= v(1,2,1)n <= 36
 0 <= v(2,1,1)p <= 25
 0 <= v(2,1,1)n <= 34
 0 <= u(1,2,1)p <= 440
 0 <= u(1,2,1)n <= 440
 0 <= u(2,1,1)p <= 440
 0 <= u(2,1,1)n <= 440
 0 <= x(2,1) <= 29
 7 <= x(0,2) <= 36
 0 <= y(0,1,2) <= 1
 0 <= y(1,0,2) <= 1
 0 <= v(0,1,2)p <= 22
 0 <= v(0,1,2)n <= 37
 0 <= v(1,0,2)p <= 23
 0 <= v(1,0,2)n <= 36
 0 <= u(0,1,2)p <= 440
 0 <= u(0,1,2)n <= 440
 0 <= u(1,0,2)p <= 440
 0 <= u(1,0,2)n <= 440
 0 <= y(0,2,2) <= 1
 0 <= y(2,0,2) <= 1
 0 <= v(0,2,2)p <= 23
 0 <= v(0,2,2)n <= 35
 0 <= v(2,0,2)p <= 22
 0 <= v(2,0,2)n <= 36
 0 <= u(0,2,2)p <= 440
 0 <= u(0,2,2)n <= 440
 0 <= u(2,0,2)p <= 440
 0 <= u(2,0,2)n <= 440
 7 <= x(1,2) <= 37
 0 <= y(1,2,2) <= 1
 0 <= y(2,1,2) <= 1
 0 <= v(1,2,2)p <= 24
 0 <= v(1,2,2)n <= 35
 0 <= v(2,1,2)p <= 22
 0 <= v(2,1,2)n <= 37
 0 <= u(1,2,2)p <= 440
 0 <= u(1,2,2)n <= 440
 0 <= u(2,1,2)p <= 440
 0 <= u(2,1,2)n <= 440
 7 <= x(2,2) <= 36
End
